Data path: /scratch/opt/lxu/CFLG/benchmarks/tree_B
Instance: treeB.100.15
Result path: /scratch/opt/lxu/CFLG/results/tree_B
Solver: Gurobi
Time limit: 7200
Formulation: LEFPAV
Cover: Large
julia --project=. src/main.jl /scratch/opt/lxu/CFLG/benchmarks/tree_B treeB.100.15 /scratch/opt/lxu/CFLG/results/tree_B Gurobi 7200 LEFPAV Large
The latest version of Julia in the `release` channel is 1.11.6+0.x64.linux.gnu. You currently have `1.11.4+0.x64.linux.gnu` installed. Run:

  juliaup update

in your terminal shell to install Julia 1.11.6+0.x64.linux.gnu and update the `release` channel to that version.
/scratch/opt/lxu/CFLG/benchmarks/tree_B Gurobi 7200.0 /scratch/opt/lxu/CFLG/results/tree_B treeB.100.15 LEFPAV Large
/scratch/opt/lxu/CFLG/benchmarks/tree_B/treeB.100.15

 read graph
data loaded

problem_graph/original graph: node: 100/100 edge: 114/114 dlt: 2.9589897163834475 break_avg_len: 1.4794948581917238 break_max_len: 1.9853213789438122Vbar/V, Ebar/E(52, 100, 66, 114)
Set parameter TokenServer to value "solice01.zib.de"
Set parameter Threads to value 1
Set parameter OutputFlag to value 1
Gurobi Optimizer version 12.0.1 build v12.0.1rc0 (linux64 - "Debian GNU/Linux 12 (bookworm)")

CPU model: Intel(R) Xeon(R) Gold 5222 CPU @ 3.80GHz, instruction set [SSE2|AVX|AVX2|AVX512]
Thread count: 8 physical cores, 16 logical processors, using up to 1 threads

Non-default parameters:
Threads  1

Optimize a model with 164 rows, 267 columns and 445 nonzeros
Model fingerprint: 0xf680431d
Coefficient statistics:
  Matrix range     [1e+00, 1e+00]
  Objective range  [1e+00, 1e+00]
  Bounds range     [1e+00, 1e+00]
  RHS range        [1e+00, 1e+00]
Presolve removed 80 rows and 97 columns
Presolve time: 0.00s
Presolved: 84 rows, 170 columns, 268 nonzeros

Iteration    Objective       Primal Inf.    Dual Inf.      Time
       0    8.9000000e+01   5.000000e+01   0.000000e+00      0s
      39    5.2000000e+01   0.000000e+00   0.000000e+00      0s

Solved in 39 iterations and 0.00 seconds (0.00 work units)
Optimal objective  5.200000000e+01

User-callback calls 118, time in user-callback 0.00 sec
elapsed CPU time: 0.96748 seconds
Set parameter TokenServer to value "solice01.zib.de"
Set parameter Threads to value 1
Set parameter OutputFlag to value 1
Set parameter MIPGap to value 0.0001
Set parameter TimeLimit to value 7199.03252

 more cuts: false 2.9589897163834475 false
is_attach:trueformulation:LEFPAV0 89 75
Set parameter PreCrush to value 1

 model loaded

Gurobi Optimizer version 12.0.1 build v12.0.1rc0 (linux64 - "Debian GNU/Linux 12 (bookworm)")

CPU model: Intel(R) Xeon(R) Gold 5222 CPU @ 3.80GHz, instruction set [SSE2|AVX|AVX2|AVX512]
Thread count: 8 physical cores, 16 logical processors, using up to 1 threads

Non-default parameters:
TimeLimit  7199.03252
PreCrush  1
Threads  1

Optimize a model with 2845 rows, 1455 columns and 7801 nonzeros
Model fingerprint: 0xa69b0b3d
Variable types: 253 continuous, 1202 integer (1202 binary)
Coefficient statistics:
  Matrix range     [1e-06, 6e+00]
  Objective range  [1e+00, 1e+00]
  Bounds range     [3e-02, 3e+00]
  RHS range        [3e-02, 6e+00]
Presolve removed 1520 rows and 636 columns
Presolve time: 0.06s
Presolved: 1325 rows, 819 columns, 6133 nonzeros
Variable types: 121 continuous, 698 integer (698 binary)
Found heuristic solution: objective 59.0000000
Found heuristic solution: objective 44.0000000

Root relaxation: objective 1.902261e+01, 803 iterations, 0.01 seconds (0.01 work units)

    Nodes    |    Current Node    |     Objective Bounds      |     Work
 Expl Unexpl |  Obj  Depth IntInf | Incumbent    BestBd   Gap | It/Node Time

     0     0   19.02261    0  122   44.00000   19.02261  56.8%     -    0s
H    0     0                      37.0000000   19.02261  48.6%     -    0s
H    0     0                      26.0000000   19.02261  26.8%     -    0s
H    0     0                      25.0000000   19.02261  23.9%     -    0s
elapsed CPU time: 1.3842334103544184e13 seconds
     0     0   20.00000    0  110   25.00000   20.00000  20.0%     -    0s
H    0     0                      23.0000000   20.00000  13.0%     -    0s
elapsed CPU time: 0.003354 seconds
     0     0   20.00000    0   99   23.00000   20.00000  13.0%     -    0s
elapsed CPU time: 0.003227 seconds
     0     0   20.00000    0   99   23.00000   20.00000  13.0%     -    0s
elapsed CPU time: 0.003089 seconds
     0     0   20.00000    0   99   23.00000   20.00000  13.0%     -    0s
elapsed CPU time: 0.003151 seconds
     0     0   20.00000    0   17   23.00000   20.00000  13.0%     -    0s
H    0     0                      22.0000000   20.00000  9.09%     -    0s
elapsed CPU time: 9.202252626098393e12 seconds
     0     0   20.00000    0   56   22.00000   20.00000  9.09%     -    0s
elapsed CPU time: 9.216968850501799e12 seconds
     0     0   20.00000    0   20   22.00000   20.00000  9.09%     -    0s
elapsed CPU time: 0.003285 seconds
     0     0   20.00000    0   53   22.00000   20.00000  9.09%     -    0s
elapsed CPU time: 0.003231 seconds
     0     0   20.00000    0   10   22.00000   20.00000  9.09%     -    0s
H    0     0                      21.0000000   20.00000  4.76%     -    0s
elapsed CPU time: 0.003143 seconds
     0     0   20.00000    0   15   21.00000   20.00000  4.76%     -    0s
elapsed CPU time: 0.003102 seconds
     0     0   20.00000    0   44   21.00000   20.00000  4.76%     -    0s
elapsed CPU time: 0.003075 seconds

Cutting planes:
  User: 13
  Gomory: 2
  Cover: 13
  Implied bound: 6
  MIR: 16
  StrongCG: 2
  GUB cover: 2
  Mod-K: 1
  RLT: 8
  Relax-and-lift: 2
  BQP: 2
  PSD: 1

Explored 1 nodes (4423 simplex iterations) in 0.77 seconds (0.23 work units)
Thread count was 1 (of 16 available processors)

Solution count 8: 21 22 23 ... 59

Optimal solution found (tolerance 1.00e-04)
Best objective 2.100000000000e+01, best bound 2.100000000000e+01, gap 0.0000%

User-callback calls 1021, time in user-callback 1.09 sec

 sepatime3.226155558014441e13 1809 12
21.0
Stat(MathOptInterface.OPTIMAL, 21.0, 21.0, 0.0, 3.226155558014441e13, 0.96748, 0.7673020362854004, 1, Main.CFLG.LEFPAV, "", #undef)
